c nombre: 22
c densidad: 0.3
p edges 100 1457
e 1 7
e 1 8
e 1 9
e 1 12
e 1 18
e 1 28
e 1 29
e 1 35
e 1 37
e 1 38
e 1 39
e 1 45
e 1 47
e 1 48
e 1 52
e 1 56
e 1 61
e 1 68
e 1 85
e 1 89
e 1 92
e 1 94
e 1 96
e 2 3
e 2 5
e 2 10
e 2 11
e 2 12
e 2 14
e 2 19
e 2 22
e 2 26
e 2 34
e 2 36
e 2 38
e 2 40
e 2 44
e 2 46
e 2 48
e 2 49
e 2 52
e 2 53
e 2 57
e 2 71
e 2 73
e 2 75
e 2 83
e 2 87
e 2 89
e 2 90
e 2 97
e 3 4
e 3 8
e 3 16
e 3 18
e 3 25
e 3 28
e 3 29
e 3 31
e 3 33
e 3 35
e 3 41
e 3 45
e 3 46
e 3 48
e 3 61
e 3 62
e 3 64
e 3 65
e 3 72
e 3 80
e 3 82
e 3 83
e 3 87
e 3 89
e 3 90
e 3 91
e 3 92
e 3 93
e 3 96
e 3 98
e 3 99
e 4 8
e 4 13
e 4 21
e 4 24
e 4 26
e 4 31
e 4 34
e 4 35
e 4 39
e 4 42
e 4 48
e 4 58
e 4 63
e 4 68
e 4 71
e 4 75
e 4 80
e 4 82
e 4 91
e 4 94
e 4 95
e 4 100
e 5 7
e 5 11
e 5 12
e 5 13
e 5 16
e 5 20
e 5 22
e 5 23
e 5 28
e 5 34
e 5 39
e 5 41
e 5 42
e 5 44
e 5 45
e 5 50
e 5 51
e 5 52
e 5 56
e 5 58
e 5 59
e 5 63
e 5 70
e 5 74
e 5 75
e 5 85
e 5 88
e 5 90
e 5 95
e 5 98
e 6 16
e 6 17
e 6 19
e 6 20
e 6 21
e 6 22
e 6 24
e 6 28
e 6 29
e 6 30
e 6 31
e 6 38
e 6 39
e 6 42
e 6 43
e 6 51
e 6 53
e 6 58
e 6 62
e 6 63
e 6 64
e 6 71
e 6 74
e 6 77
e 6 78
e 6 81
e 6 83
e 6 86
e 6 87
e 6 89
e 6 90
e 6 93
e 6 96
e 6 98
e 6 100
e 7 12
e 7 13
e 7 14
e 7 21
e 7 22
e 7 24
e 7 26
e 7 32
e 7 34
e 7 39
e 7 47
e 7 51
e 7 55
e 7 66
e 7 69
e 7 73
e 7 76
e 7 77
e 7 80
e 7 83
e 7 86
e 7 88
e 7 92
e 7 93
e 7 94
e 7 95
e 8 11
e 8 12
e 8 16
e 8 19
e 8 20
e 8 22
e 8 26
e 8 27
e 8 28
e 8 36
e 8 43
e 8 45
e 8 48
e 8 49
e 8 56
e 8 57
e 8 64
e 8 67
e 8 80
e 8 82
e 8 85
e 8 88
e 8 89
e 8 93
e 8 99
e 9 12
e 9 14
e 9 15
e 9 19
e 9 26
e 9 30
e 9 32
e 9 36
e 9 42
e 9 45
e 9 48
e 9 49
e 9 53
e 9 59
e 9 64
e 9 68
e 9 73
e 9 76
e 9 77
e 9 79
e 9 81
e 9 82
e 9 83
e 9 89
e 9 90
e 9 97
e 9 98
e 9 100
e 10 11
e 10 14
e 10 18
e 10 25
e 10 38
e 10 48
e 10 49
e 10 50
e 10 56
e 10 57
e 10 58
e 10 59
e 10 66
e 10 70
e 10 71
e 10 74
e 10 78
e 10 86
e 10 97
e 11 13
e 11 14
e 11 16
e 11 18
e 11 19
e 11 23
e 11 24
e 11 27
e 11 29
e 11 33
e 11 35
e 11 38
e 11 46
e 11 63
e 11 66
e 11 69
e 11 72
e 11 76
e 11 79
e 11 80
e 11 86
e 11 92
e 11 94
e 11 96
e 12 17
e 12 19
e 12 25
e 12 26
e 12 28
e 12 32
e 12 36
e 12 38
e 12 40
e 12 42
e 12 47
e 12 49
e 12 54
e 12 55
e 12 59
e 12 65
e 12 71
e 12 72
e 12 73
e 12 77
e 12 78
e 12 80
e 12 82
e 12 84
e 12 86
e 12 90
e 12 97
e 13 14
e 13 15
e 13 16
e 13 23
e 13 25
e 13 28
e 13 31
e 13 33
e 13 34
e 13 45
e 13 52
e 13 54
e 13 55
e 13 64
e 13 66
e 13 73
e 13 76
e 13 78
e 13 83
e 13 86
e 13 88
e 13 90
e 13 93
e 13 94
e 13 97
e 13 100
e 14 15
e 14 20
e 14 24
e 14 25
e 14 26
e 14 29
e 14 34
e 14 39
e 14 42
e 14 46
e 14 48
e 14 52
e 14 53
e 14 55
e 14 61
e 14 66
e 14 75
e 14 78
e 14 80
e 14 81
e 14 82
e 14 83
e 14 94
e 14 96
e 14 97
e 14 98
e 14 100
e 15 20
e 15 21
e 15 22
e 15 29
e 15 37
e 15 40
e 15 42
e 15 45
e 15 50
e 15 53
e 15 55
e 15 66
e 15 67
e 15 70
e 15 73
e 15 79
e 15 80
e 15 81
e 15 83
e 15 84
e 15 86
e 15 97
e 15 99
e 16 17
e 16 20
e 16 24
e 16 37
e 16 41
e 16 44
e 16 47
e 16 49
e 16 53
e 16 55
e 16 61
e 16 69
e 16 70
e 16 72
e 16 77
e 16 79
e 16 81
e 16 84
e 16 87
e 16 88
e 16 89
e 16 92
e 16 95
e 17 32
e 17 33
e 17 34
e 17 38
e 17 39
e 17 42
e 17 46
e 17 47
e 17 50
e 17 51
e 17 52
e 17 55
e 17 60
e 17 62
e 17 71
e 17 74
e 17 75
e 17 77
e 17 83
e 17 86
e 17 89
e 17 96
e 17 97
e 17 98
e 18 26
e 18 29
e 18 32
e 18 42
e 18 53
e 18 56
e 18 57
e 18 60
e 18 64
e 18 65
e 18 66
e 18 76
e 18 79
e 18 80
e 18 82
e 18 86
e 18 87
e 18 91
e 18 93
e 18 99
e 19 20
e 19 24
e 19 26
e 19 29
e 19 31
e 19 32
e 19 35
e 19 38
e 19 41
e 19 42
e 19 43
e 19 58
e 19 61
e 19 62
e 19 66
e 19 69
e 19 73
e 19 75
e 19 77
e 19 82
e 19 86
e 19 91
e 19 94
e 19 98
e 20 21
e 20 22
e 20 27
e 20 34
e 20 37
e 20 42
e 20 44
e 20 51
e 20 52
e 20 54
e 20 56
e 20 57
e 20 59
e 20 63
e 20 64
e 20 71
e 20 74
e 20 75
e 20 78
e 20 79
e 20 91
e 20 95
e 20 96
e 21 23
e 21 25
e 21 26
e 21 27
e 21 33
e 21 34
e 21 38
e 21 39
e 21 40
e 21 45
e 21 48
e 21 49
e 21 50
e 21 51
e 21 52
e 21 58
e 21 59
e 21 65
e 21 66
e 21 70
e 21 71
e 21 79
e 21 81
e 21 83
e 21 89
e 21 91
e 21 95
e 21 98
e 22 23
e 22 28
e 22 30
e 22 31
e 22 32
e 22 33
e 22 34
e 22 36
e 22 39
e 22 40
e 22 42
e 22 52
e 22 55
e 22 61
e 22 64
e 22 65
e 22 71
e 22 82
e 22 85
e 22 86
e 22 87
e 22 88
e 22 95
e 22 97
e 23 29
e 23 30
e 23 31
e 23 32
e 23 35
e 23 39
e 23 40
e 23 45
e 23 48
e 23 51
e 23 52
e 23 53
e 23 54
e 23 55
e 23 56
e 23 60
e 23 61
e 23 69
e 23 73
e 23 76
e 23 84
e 23 90
e 23 93
e 23 94
e 23 96
e 24 34
e 24 41
e 24 44
e 24 50
e 24 52
e 24 53
e 24 60
e 24 62
e 24 66
e 24 67
e 24 68
e 24 70
e 24 80
e 24 84
e 24 86
e 24 90
e 24 92
e 24 94
e 24 99
e 25 26
e 25 27
e 25 33
e 25 34
e 25 37
e 25 40
e 25 41
e 25 43
e 25 45
e 25 59
e 25 60
e 25 61
e 25 64
e 25 68
e 25 69
e 25 70
e 25 75
e 25 76
e 25 83
e 25 88
e 25 94
e 25 95
e 25 96
e 26 39
e 26 40
e 26 43
e 26 47
e 26 48
e 26 51
e 26 55
e 26 56
e 26 58
e 26 60
e 26 67
e 26 70
e 26 74
e 26 75
e 26 76
e 26 78
e 26 88
e 26 94
e 26 95
e 27 30
e 27 33
e 27 39
e 27 45
e 27 46
e 27 47
e 27 55
e 27 56
e 27 62
e 27 66
e 27 70
e 27 71
e 27 75
e 27 80
e 27 81
e 27 91
e 27 95
e 27 98
e 27 99
e 28 30
e 28 31
e 28 32
e 28 33
e 28 36
e 28 42
e 28 44
e 28 45
e 28 49
e 28 51
e 28 52
e 28 59
e 28 64
e 28 67
e 28 68
e 28 69
e 28 79
e 28 80
e 28 81
e 28 83
e 28 87
e 28 89
e 28 90
e 28 92
e 28 96
e 28 97
e 29 30
e 29 32
e 29 38
e 29 42
e 29 44
e 29 45
e 29 46
e 29 47
e 29 54
e 29 55
e 29 59
e 29 67
e 29 70
e 29 74
e 29 85
e 29 86
e 29 97
e 29 100
e 30 32
e 30 34
e 30 35
e 30 39
e 30 42
e 30 43
e 30 48
e 30 50
e 30 52
e 30 56
e 30 57
e 30 66
e 30 78
e 30 86
e 30 95
e 30 100
e 31 36
e 31 38
e 31 39
e 31 53
e 31 54
e 31 60
e 31 62
e 31 63
e 31 64
e 31 71
e 31 76
e 31 77
e 31 81
e 31 84
e 31 88
e 31 91
e 31 94
e 31 98
e 31 99
e 32 34
e 32 36
e 32 38
e 32 39
e 32 42
e 32 44
e 32 46
e 32 50
e 32 55
e 32 70
e 32 71
e 32 73
e 32 87
e 32 89
e 32 92
e 32 93
e 32 94
e 32 99
e 33 35
e 33 42
e 33 43
e 33 45
e 33 50
e 33 51
e 33 55
e 33 61
e 33 67
e 33 71
e 33 84
e 33 88
e 33 93
e 33 98
e 33 99
e 33 100
e 34 36
e 34 37
e 34 47
e 34 51
e 34 57
e 34 60
e 34 61
e 34 62
e 34 66
e 34 70
e 34 71
e 34 73
e 34 74
e 34 75
e 34 79
e 34 83
e 34 85
e 34 88
e 34 90
e 34 92
e 34 96
e 34 98
e 35 40
e 35 48
e 35 51
e 35 56
e 35 58
e 35 66
e 35 67
e 35 72
e 35 73
e 35 75
e 35 80
e 35 83
e 35 88
e 35 90
e 35 94
e 35 96
e 36 37
e 36 38
e 36 39
e 36 42
e 36 44
e 36 45
e 36 51
e 36 55
e 36 59
e 36 61
e 36 63
e 36 65
e 36 72
e 36 79
e 36 82
e 36 84
e 36 86
e 36 89
e 36 92
e 36 93
e 36 97
e 36 98
e 37 40
e 37 41
e 37 47
e 37 53
e 37 56
e 37 58
e 37 60
e 37 66
e 37 77
e 37 80
e 37 81
e 37 82
e 37 84
e 37 85
e 37 86
e 37 88
e 37 89
e 37 90
e 37 91
e 37 94
e 37 96
e 37 97
e 37 98
e 38 45
e 38 47
e 38 50
e 38 51
e 38 54
e 38 57
e 38 58
e 38 59
e 38 64
e 38 67
e 38 71
e 38 78
e 38 80
e 38 81
e 38 89
e 38 95
e 38 96
e 38 97
e 38 98
e 39 40
e 39 41
e 39 42
e 39 45
e 39 46
e 39 47
e 39 48
e 39 52
e 39 53
e 39 54
e 39 56
e 39 58
e 39 59
e 39 61
e 39 66
e 39 68
e 39 69
e 39 72
e 39 75
e 39 76
e 39 77
e 39 78
e 39 79
e 39 90
e 39 93
e 39 94
e 39 95
e 39 96
e 39 99
e 40 54
e 40 56
e 40 59
e 40 71
e 40 75
e 40 76
e 40 82
e 40 83
e 40 90
e 40 92
e 40 94
e 40 98
e 41 43
e 41 51
e 41 61
e 41 63
e 41 66
e 41 67
e 41 70
e 41 73
e 41 81
e 41 90
e 41 100
e 42 43
e 42 45
e 42 46
e 42 47
e 42 51
e 42 54
e 42 57
e 42 59
e 42 64
e 42 65
e 42 70
e 42 74
e 42 80
e 42 85
e 42 87
e 42 88
e 42 98
e 43 44
e 43 62
e 43 67
e 43 69
e 43 70
e 43 71
e 43 73
e 43 78
e 43 80
e 43 81
e 43 82
e 43 91
e 43 95
e 43 97
e 43 99
e 44 49
e 44 62
e 44 67
e 44 70
e 44 71
e 44 75
e 44 76
e 44 81
e 44 87
e 44 92
e 45 50
e 45 54
e 45 59
e 45 64
e 45 65
e 45 67
e 45 68
e 45 72
e 45 76
e 45 82
e 45 86
e 45 87
e 45 90
e 45 91
e 45 99
e 46 49
e 46 50
e 46 51
e 46 56
e 46 57
e 46 59
e 46 72
e 46 74
e 46 75
e 46 81
e 46 86
e 46 88
e 46 89
e 46 96
e 47 53
e 47 57
e 47 58
e 47 63
e 47 65
e 47 68
e 47 69
e 47 73
e 47 79
e 47 82
e 47 87
e 47 89
e 47 90
e 47 92
e 47 97
e 47 100
e 48 49
e 48 51
e 48 53
e 48 55
e 48 60
e 48 68
e 48 69
e 48 71
e 48 74
e 48 77
e 48 79
e 48 81
e 48 82
e 48 84
e 48 86
e 48 90
e 48 92
e 48 97
e 48 98
e 48 100
e 49 50
e 49 51
e 49 62
e 49 64
e 49 69
e 49 72
e 49 78
e 49 80
e 49 83
e 49 84
e 49 85
e 49 87
e 49 91
e 49 93
e 49 97
e 49 98
e 49 100
e 50 54
e 50 60
e 50 65
e 50 71
e 50 73
e 50 75
e 50 82
e 50 84
e 50 88
e 50 90
e 50 92
e 50 93
e 50 95
e 50 97
e 51 52
e 51 53
e 51 54
e 51 55
e 51 57
e 51 61
e 51 63
e 51 64
e 51 66
e 51 68
e 51 73
e 51 75
e 51 91
e 51 93
e 51 98
e 51 99
e 52 61
e 52 62
e 52 63
e 52 73
e 52 75
e 52 77
e 52 83
e 52 88
e 52 89
e 52 90
e 53 58
e 53 60
e 53 66
e 53 68
e 53 71
e 53 78
e 53 90
e 53 99
e 54 56
e 54 57
e 54 62
e 54 68
e 54 73
e 54 77
e 54 81
e 54 84
e 54 88
e 54 89
e 54 95
e 54 97
e 54 98
e 54 100
e 55 57
e 55 59
e 55 65
e 55 67
e 55 75
e 55 77
e 55 81
e 55 84
e 55 87
e 55 90
e 55 92
e 55 98
e 56 58
e 56 60
e 56 66
e 56 69
e 56 74
e 56 76
e 56 77
e 56 78
e 56 92
e 56 95
e 56 96
e 57 60
e 57 61
e 57 62
e 57 65
e 57 68
e 57 70
e 57 71
e 57 76
e 57 78
e 57 79
e 57 88
e 57 89
e 57 92
e 57 94
e 57 97
e 57 98
e 58 59
e 58 61
e 58 66
e 58 67
e 58 74
e 58 75
e 58 77
e 58 78
e 58 84
e 58 85
e 58 88
e 58 91
e 58 93
e 58 96
e 58 99
e 59 60
e 59 63
e 59 65
e 59 67
e 59 73
e 59 75
e 59 77
e 59 78
e 59 79
e 59 81
e 59 83
e 59 86
e 59 88
e 59 90
e 59 92
e 59 95
e 60 62
e 60 64
e 60 65
e 60 70
e 60 71
e 60 73
e 60 74
e 60 79
e 60 83
e 60 91
e 60 97
e 60 99
e 61 65
e 61 69
e 61 70
e 61 72
e 61 74
e 61 77
e 61 79
e 61 81
e 61 90
e 61 93
e 61 94
e 61 96
e 61 98
e 61 99
e 61 100
e 62 63
e 62 65
e 62 67
e 62 70
e 62 71
e 62 73
e 62 76
e 62 78
e 62 80
e 62 82
e 62 83
e 62 96
e 62 97
e 63 64
e 63 65
e 63 67
e 63 69
e 63 70
e 63 71
e 63 74
e 63 75
e 63 82
e 63 84
e 63 87
e 63 88
e 63 92
e 63 93
e 64 66
e 64 68
e 64 69
e 64 71
e 64 74
e 64 75
e 64 80
e 64 82
e 64 83
e 64 87
e 64 89
e 64 91
e 64 93
e 64 94
e 64 97
e 64 98
e 64 100
e 65 67
e 65 70
e 65 72
e 65 74
e 65 81
e 65 82
e 65 87
e 65 90
e 65 92
e 65 93
e 65 95
e 65 96
e 65 97
e 65 98
e 66 67
e 66 76
e 66 77
e 66 80
e 66 86
e 66 97
e 66 99
e 67 71
e 67 72
e 67 74
e 67 76
e 67 84
e 67 85
e 67 88
e 67 89
e 67 90
e 67 91
e 67 97
e 67 99
e 68 70
e 68 71
e 68 79
e 68 81
e 68 82
e 68 83
e 68 94
e 68 98
e 68 99
e 69 78
e 69 81
e 69 82
e 69 86
e 69 92
e 69 95
e 69 96
e 69 97
e 70 73
e 70 78
e 70 84
e 70 85
e 70 87
e 70 88
e 70 90
e 71 77
e 71 80
e 71 88
e 71 89
e 71 97
e 71 98
e 72 73
e 72 74
e 72 75
e 72 78
e 72 83
e 72 85
e 72 86
e 72 89
e 72 92
e 72 98
e 73 76
e 73 78
e 73 80
e 73 85
e 73 86
e 73 92
e 73 94
e 73 96
e 74 76
e 74 78
e 74 82
e 74 92
e 74 94
e 74 95
e 74 97
e 74 98
e 74 99
e 74 100
e 75 76
e 75 81
e 75 82
e 75 84
e 75 91
e 75 92
e 75 93
e 75 97
e 75 99
e 75 100
e 76 77
e 76 78
e 76 80
e 76 85
e 76 92
e 76 98
e 76 99
e 77 80
e 77 84
e 77 89
e 77 91
e 77 92
e 77 93
e 77 97
e 77 99
e 77 100
e 78 79
e 78 80
e 78 82
e 78 85
e 78 91
e 78 95
e 78 96
e 78 99
e 79 86
e 79 87
e 79 89
e 79 90
e 79 96
e 79 98
e 79 99
e 80 85
e 80 86
e 80 89
e 80 93
e 80 94
e 80 99
e 81 88
e 81 92
e 81 93
e 81 94
e 81 95
e 81 97
e 81 98
e 82 83
e 82 84
e 82 85
e 82 89
e 82 90
e 82 93
e 82 95
e 82 98
e 83 84
e 83 92
e 83 96
e 84 92
e 84 97
e 84 98
e 85 87
e 85 88
e 85 94
e 85 95
e 85 98
e 85 99
e 86 88
e 86 89
e 86 90
e 86 95
e 86 97
e 87 89
e 87 90
e 87 92
e 87 99
e 88 92
e 88 93
e 88 96
e 88 98
e 88 99
e 88 100
e 89 93
e 89 94
e 89 97
e 89 99
e 90 94
e 90 99
e 91 95
e 91 97
e 91 100
e 92 96
e 92 98
e 92 99
e 93 95
e 94 97
e 95 97
e 96 99
e 97 100
e 98 100
